% Auto-generated by scripts/generate_dzn.py
% problem_type   = regex
% instance       = regex_47
% source_json    = instances_json/1_medium_blowup/regex_47.json
% blowup         = 5.454545454545454
% representation = DFA

mode = 0;

var_count = 22;
Q = 60;
S = 2;
q0 = 1;
F = {42, 43, 44, 45, 46, 47, 48, 49, 50, 51, 52, 53, 54, 55, 56, 57, 58, 59, 60};
d_dfa = array2d(1..60, 1..2, [
  2, 1,
  2, 3,
  2, 4,
  6, 5,
  8, 7,
  8, 9,
  11, 10,
  11, 12,
  11, 13,
  15, 14,
  15, 16,
  15, 17,
  19, 18,
  21, 20,
  21, 22,
  21, 23,
  25, 24,
  27, 26,
  27, 28,
  30, 29,
  30, 31,
  30, 32,
  34, 33,
  36, 35,
  36, 37,
  39, 38,
  39, 40,
  39, 41,
  43, 42,
  43, 44,
  43, 45,
  47, 46,
  49, 48,
  49, 50,
  52, 51,
  52, 53,
  52, 54,
  56, 55,
  56, 57,
  56, 58,
  60, 59,
  2, 1,
  2, 3,
  2, 4,
  6, 5,
  8, 7,
  8, 9,
  11, 10,
  11, 12,
  11, 13,
  15, 14,
  15, 16,
  15, 17,
  19, 18,
  21, 20,
  21, 22,
  21, 23,
  25, 24,
  27, 26,
  27, 28
]);
d_nfa = array2d(1..60, 1..2, [
  {}, {},
  {}, {},
  {}, {},
  {}, {},
  {}, {},
  {}, {},
  {}, {},
  {}, {},
  {}, {},
  {}, {},
  {}, {},
  {}, {},
  {}, {},
  {}, {},
  {}, {},
  {}, {},
  {}, {},
  {}, {},
  {}, {},
  {}, {},
  {}, {},
  {}, {},
  {}, {},
  {}, {},
  {}, {},
  {}, {},
  {}, {},
  {}, {},
  {}, {},
  {}, {},
  {}, {},
  {}, {},
  {}, {},
  {}, {},
  {}, {},
  {}, {},
  {}, {},
  {}, {},
  {}, {},
  {}, {},
  {}, {},
  {}, {},
  {}, {},
  {}, {},
  {}, {},
  {}, {},
  {}, {},
  {}, {},
  {}, {},
  {}, {},
  {}, {},
  {}, {},
  {}, {},
  {}, {},
  {}, {},
  {}, {},
  {}, {},
  {}, {},
  {}, {},
  {}, {}
]);
